(Cost-function, node_ordering) that gave the best result for SCI = (0, 9)
MST
Route #1: 53 58 40 21 26 12 80 68 77 3 50 1 69
Route #2: 54 55 25 24 29 79 78 34 35 65 71 9 51 81 33 76
Route #3: 73 72 74 22 41 75 56 23 67 39 4
Route #4: 13 2 57 15 43 42 87 97 59 96 6
Route #5: 89 16 86 38 14 44 91 85 93 99
Route #6: 52 7 82 48 19 64 49 36 47 46 8 45 83
Route #7: 31 10 70 30 20 66 32 90 63 11 62 88
Route #8: 94 95 92 98 37 100 61 17 84 5 60 18 27 28
Cost 894.892
VALID solution
Total execution time = 7.54412 s
